Version identifier: 22.1.0.0 | 2022-03-09 | 1a383f8ce
CPXPARAM_Threads                                 1
CPXPARAM_MIP_Strategy_VariableSelect             3
CPXPARAM_TimeLimit                               600
Tried aggregator 1 time.
Reduced MIP has 1819 rows, 8700 columns, and 67531 nonzeros.
Reduced MIP has 7200 binaries, 1500 generals, 0 SOSs, and 0 indicators.
Presolve time = 0.04 sec. (26.47 ticks)
Found incumbent of value 1583.000000 after 0.11 sec. (66.87 ticks)
Probing time = 0.01 sec. (4.06 ticks)
Tried aggregator 1 time.
Detecting symmetries...
Reduced MIP has 1819 rows, 8700 columns, and 67531 nonzeros.
Reduced MIP has 7200 binaries, 1500 generals, 0 SOSs, and 0 indicators.
Presolve time = 0.05 sec. (32.93 ticks)
Probing time = 0.01 sec. (4.06 ticks)
Clique table members: 303.
MIP emphasis: balance optimality and feasibility.
MIP search method: dynamic search.
Parallel mode: none, using 1 thread.
Root relaxation solution time = 1.39 sec. (1403.03 ticks)

        Nodes                                         Cuts/
   Node  Left     Objective  IInf  Best Integer    Best Bound    ItCnt     Gap

*     0+    0                         1583.0000        0.0000           100.00%
      0     0        0.0000  1725     1583.0000        0.0000     4909  100.00%
      0     0        0.0000  1486     1583.0000   ZeroHalf: 8    10132  100.00%
      0     0        0.0000  1431     1583.0000   ZeroHalf: 7    10372  100.00%
      0     0        0.0000  1738     1583.0000 ZeroHalf: 178    16877  100.00%
*     0+    0                          415.0000        0.0000           100.00%
*     0+    0                          374.0000        0.0000           100.00%
*     0+    0                          358.0000        0.0000           100.00%
      0     0  -1.00000e+75     0      358.0000        0.0000    16877  100.00%
      0     0        0.0000  1638      358.0000   ZeroHalf: 4    22597  100.00%
      0     0        0.0000  1707      358.0000  ZeroHalf: 21    28994  100.00%
Detecting symmetries...
Heuristic still looking.
*     0+    0                          349.0000        0.0000           100.00%
*     0+    0                          313.0000        0.0000           100.00%
*     0+    0                          301.0000        0.0000           100.00%
      0     0  -1.00000e+75     0      301.0000        0.0000    28994  100.00%
Detecting symmetries...
      0     2        0.0000  1317      301.0000        0.0000    28994  100.00%
Elapsed time = 69.28 sec. (73538.72 ticks, tree = 0.01 MB, solutions = 7)
      1     3        1.0000  1673      301.0000        0.0000    38830  100.00%
      2     4        0.0000  1665      301.0000        0.0000    44839  100.00%
      3     5        0.0000  1719      301.0000        0.0000    51787  100.00%
      4     6        0.0000  1719      301.0000        0.0000    57615  100.00%
      5     7        0.0000  1680      301.0000        0.0000    59189  100.00%
      6     8        0.0000  1695      301.0000        0.0000    59852  100.00%
      7     9        0.0000  1692      301.0000        0.0000    59987  100.00%
      8    10       -0.0000  1703      301.0000        0.0000    61113  100.00%
      9    11        0.0000  1692      301.0000        0.0000    61114  100.00%
     10    12        0.0000  1783      301.0000        0.0000    62120  100.00%
Elapsed time = 87.27 sec. (92956.17 ticks, tree = 0.06 MB, solutions = 7)
     13    15        0.0000  1741      301.0000        0.0000    64396  100.00%
     16    18       -0.0000  1706      301.0000        0.0000    67794  100.00%
     18    20        0.0000  1669      301.0000        0.0000    71001  100.00%
     21    23        1.0000  1642      301.0000        0.0000    73015  100.00%
     23    25        0.0103  1631      301.0000        0.0000    75845  100.00%
     26    28        0.0000  1609      301.0000        0.0000    79633  100.00%
     28    30        0.0000  1583      301.0000        0.0000    81491  100.00%
     30    32        0.0000  1597      301.0000        0.0000    84403  100.00%
     32    34        0.0000  1636      301.0000        0.0000    85914  100.00%
     35    37        0.0600  1636      301.0000        0.0000    99036  100.00%
Elapsed time = 102.12 sec. (109506.82 ticks, tree = 0.13 MB, solutions = 7)
     36    38        0.0600  1566      301.0000        0.0000   106248  100.00%
     39    41        0.0000  1644      301.0000        0.0000   108710  100.00%
     40    42       -0.0000  1585      301.0000        0.0000   109185  100.00%
     42    44        0.0456  1457      301.0000        0.0000   133312  100.00%
     43    45        0.0238  1493      301.0000        0.0000   143026  100.00%
     46    48        0.0000  1524      301.0000        0.0000   145321  100.00%
     48    50       -0.0000  1543      301.0000        0.0000   147795  100.00%
     50    52       -0.0000  1538      301.0000        0.0000   151287  100.00%
     52    54        0.0692  1531      301.0000        0.0000   164937  100.00%
     55    57       -0.0000  1449      301.0000        0.0000   166469  100.00%
Elapsed time = 124.45 sec. (133532.43 ticks, tree = 0.34 MB, solutions = 7)
     57    59       -0.0000  1436      301.0000        0.0000   166826  100.00%
     60    62        0.0000  1384      301.0000        0.0000   168216  100.00%
     62    64        1.0000  1326      301.0000        0.0000   172149  100.00%
     64    66        0.0000  1499      301.0000        0.0000   173942  100.00%
     66    68       -0.0000  1371      301.0000        0.0000   174027  100.00%
     68    70        0.1000  1332      301.0000        0.0000   195746  100.00%
     70    72       -0.0000  1365      301.0000        0.0000   196059  100.00%
     73    75        1.0000  1242      301.0000        0.0000   200179  100.00%
     76    78        0.0000  1324      301.0000        0.0000   201935  100.00%
     78    80       -0.0000  1177      301.0000        0.0000   206405  100.00%
Elapsed time = 148.01 sec. (157565.62 ticks, tree = 0.72 MB, solutions = 7)
     79    81       -0.0000  1461      301.0000        0.0000   209409  100.00%
     83    85        1.0000  1131      301.0000        0.0000   212848  100.00%
     86    88        0.0000  1061      301.0000        0.0000   217331  100.00%
     87    89        0.0642  1427      301.0000        0.0000   224706  100.00%
     89    91        0.0000  1064      301.0000        0.0000   225799  100.00%
     90    92        1.0000   997      301.0000        0.0000   228258  100.00%
     92    94        0.0000  1147      301.0000        0.0000   234664  100.00%
     94    96        0.2091  1408      301.0000        0.0000   243894  100.00%
     96    98        0.0035  1367      301.0000        0.0000   261565  100.00%
     97    99       -0.0000  1106      301.0000        0.0000   270252  100.00%
Elapsed time = 179.11 sec. (189428.34 ticks, tree = 1.06 MB, solutions = 7)
     99   101       -0.0000  1175      301.0000        0.0000   271528  100.00%
    101   103       -0.0000  1199      301.0000        0.0000   275656  100.00%
    102   104        2.1891  1427      301.0000        0.0000   279258  100.00%
    103   105        0.1185  1403      301.0000        0.0000   286661  100.00%
    106   108        1.0000   920      301.0000        0.0000   290364  100.00%
    107   109        0.0178  1372      301.0000        0.0000   311505  100.00%
    109   111       -0.0000  1150      301.0000        0.0000   312833  100.00%
    111   113        0.0000  1080      301.0000        0.0000   315945  100.00%
    112   114        0.0231  1303      301.0000        0.0000   331427  100.00%
    113   115        0.0000  1316      301.0000        0.0000   337920  100.00%
Elapsed time = 201.83 sec. (213785.89 ticks, tree = 1.33 MB, solutions = 7)
    114   116        0.0000  1307      301.0000        0.0000   342576  100.00%
    116   118        3.0000  1366      301.0000        0.0000   346789  100.00%
    118   120        0.0000  1290      301.0000        0.0000   347056  100.00%
    120   122        0.0000  1288      301.0000        0.0000   347432  100.00%
    121   123        2.0000  1053      301.0000        0.0000   353023  100.00%
    123   125       -0.0000  1286      301.0000        0.0000   353168  100.00%
    125   127        2.2158  1300      301.0000        0.0000   358913  100.00%
    127   129        3.0000  1126      301.0000        0.0000   362409  100.00%
    128   130        0.0000  1061      301.0000        0.0000   370086  100.00%
    129   131        0.0000  1032      301.0000        0.0000   375255  100.00%
Elapsed time = 224.16 sec. (236174.37 ticks, tree = 1.46 MB, solutions = 7)
    130   132        0.0000  1115      301.0000        0.0000   380200  100.00%
    131   133        2.2105  1256      301.0000        0.0000   386716  100.00%
    133   135        0.0751  1305      301.0000        0.0000   396546  100.00%
    135   137        1.0000  1097      301.0000        0.0000   400474  100.00%
    136   138        0.0000  1138      301.0000        0.0000   406173  100.00%
    137   139       -0.0000  1185      301.0000        0.0000   411357  100.00%
    138   140        2.2297  1255      301.0000        0.0000   418405  100.00%
    140   142       -0.0000  1093      301.0000        0.0000   424058  100.00%
    142   144        1.1768  1232      301.0000        0.0000   432217  100.00%
    144   146        1.0000  1209      301.0000        0.0000   435795  100.00%
Elapsed time = 247.41 sec. (259575.01 ticks, tree = 1.60 MB, solutions = 7)
    146   148        1.0000  1277      301.0000        0.0000   441528  100.00%
    147   149        0.0000  1066      301.0000        0.0000   445574  100.00%
    148   150       -0.0000  1160      301.0000        0.0000   449082  100.00%
    149   151        0.1678  1256      301.0000        0.0000   455524  100.00%
    150   152        0.0000  1124      301.0000        0.0000   460873  100.00%
    152   154        0.1723  1349      301.0000        0.0000   481230  100.00%
    154   156        0.0000  1175      301.0000        0.0000   488915  100.00%
    157   159       -0.0000  1165      301.0000        0.0000   492279  100.00%
    159   161        0.0779  1333      301.0000        0.0000   507869  100.00%
    160   162        0.0000  1180      301.0000        0.0000   508034  100.00%
Elapsed time = 278.35 sec. (290661.12 ticks, tree = 1.76 MB, solutions = 7)
    161   163        1.0000  1175      301.0000        0.0000   512589  100.00%
    162   164        0.0000  1311      301.0000        0.0000   518920  100.00%
    163   165        2.2158  1288      301.0000        0.0000   524667  100.00%
    164   166        0.0000  1174      301.0000        0.0000   529352  100.00%
    165   167        0.0000  1160      301.0000        0.0000   535864  100.00%
    166   168        0.0000  1217      301.0000        0.0000   543426  100.00%
    167   169        3.0000  1156      301.0000        0.0000   547933  100.00%
    169   171        1.0000  1247      301.0000        0.0000   552484  100.00%
    170   172        0.0000  1210      301.0000        0.0000   556418  100.00%
    173   175       -0.0000  1274      301.0000        0.0000   565736  100.00%
Elapsed time = 301.13 sec. (313936.34 ticks, tree = 1.88 MB, solutions = 7)
    176   178        1.0000  1319      301.0000        0.0000   574879  100.00%
    179   181        0.3899  1341      301.0000        0.0000   591693  100.00%
    183   185        0.3808  1299      301.0000        0.0000   603068  100.00%
    187   189        0.0000  1205      301.0000        0.0000   610172  100.00%
    190   192        0.0319  1362      301.0000        0.0000   621870  100.00%
    192   194       -0.0000  1116      301.0000        0.0000   631694  100.00%
    194   196       -0.0000  1078      301.0000        0.0000   645196  100.00%
    197   199        0.0781  1328      301.0000        0.0000   661160  100.00%
    199   201       -0.0000  1123      301.0000        0.0000   673425  100.00%
    202   204        1.0000  1258      301.0000        0.0000   687926  100.00%
Elapsed time = 347.97 sec. (362279.76 ticks, tree = 2.29 MB, solutions = 7)
    204   206        1.0000  1300      301.0000        0.0000   698336  100.00%
    208   210        0.0736  1379      301.0000        0.0000   711971  100.00%
    211   213        0.0000  1218      301.0000        0.0000   720677  100.00%
    213   215        0.0779  1321      301.0000        0.0000   751656  100.00%
    216   218        3.0000  1396      301.0000        0.0000   763891  100.00%
    219   221        3.2352  1160      301.0000        0.0000   779694  100.00%
    222   224        3.2652  1141      301.0000        0.0000   782445  100.00%
    231   233        4.0000  1089      301.0000        0.0000   790303  100.00%
    235   237        6.0000  1145      301.0000        0.0000   799948  100.00%
    240   242        6.0000  1014      301.0000        0.0000   809822  100.00%
Elapsed time = 405.44 sec. (420004.40 ticks, tree = 2.83 MB, solutions = 7)
    245   247        4.0000  1014      301.0000        0.0000   821711  100.00%
    248   250        5.0581  1129      301.0000        0.0000   837255  100.00%
    253   255        5.0000  1071      301.0000        0.0000   844892  100.00%
    257   259        5.1658   974      301.0000        0.0000   857906  100.00%
    260   262        5.5000   900      301.0000        0.0000   862621  100.00%
    264   266        7.0667  1060      301.0000        0.0000   874334  100.00%
    268   270        9.0000   990      301.0000        0.0000   883524  100.00%
    272   274        9.0000  1171      301.0000        0.0000   892975  100.00%
    277   279        7.0000  1128      301.0000        0.0000   899261  100.00%
    280   282        7.0000  1199      301.0000        0.0000   903130  100.00%
Elapsed time = 455.51 sec. (469051.17 ticks, tree = 3.53 MB, solutions = 7)
    285   287        9.0000  1132      301.0000        0.0000   910718  100.00%
    290   292       10.0000   961      301.0000        0.0000   918810  100.00%
    295   297       10.0000   948      301.0000        0.0000   929522  100.00%
    300   302       11.4090  1062      301.0000        0.0000   937554  100.00%
    305   307       10.0000  1011      301.0000        0.0000   946934  100.00%
    311   313       10.0000  1010      301.0000        0.0000   955485  100.00%
    316   318       10.7917  1075      301.0000        0.0000   964050  100.00%
    325   327       13.0000  1092      301.0000        0.0000   968156  100.00%
    331   333       13.5000   989      301.0000        0.0000   977069  100.00%
    336   338       14.2510  1050      301.0000        0.0000   988235  100.00%
Elapsed time = 498.49 sec. (511182.77 ticks, tree = 4.43 MB, solutions = 7)
    341   343       15.6296  1022      301.0000        0.0000  1002212  100.00%
    346   348       16.1833  1090      301.0000        0.0000  1012824  100.00%
    352   354       17.0000  1012      301.0000        0.0000  1021703  100.00%
    360   362       18.8333   746      301.0000        0.0000  1028583  100.00%
    369   371       20.0000   726      301.0000        0.0000  1035553  100.00%
    373   375       20.0000   745      301.0000        0.0000  1051333  100.00%
    379   381       22.0000   720      301.0000        0.0000  1061715  100.00%
    385   387       24.0000   686      301.0000        0.0000  1071874  100.00%
    396   398       26.0000   656      301.0000        0.0000  1077179  100.00%
    407   409       27.0000   604      301.0000        0.0000  1083544  100.00%
Elapsed time = 540.98 sec. (552091.12 ticks, tree = 5.67 MB, solutions = 7)
    416   418       28.0000   641      301.0000        0.0000  1092811  100.00%
    427   429       29.0000   644      301.0000        0.0000  1099766  100.00%
    439   441       30.2500   583      301.0000        0.0000  1107184  100.00%
    453   455       31.5000   654      301.0000        0.0000  1113242  100.00%
    466   468       33.0000   632      301.0000        0.0000  1120040  100.00%
*   478+  478                          192.0000        0.0000           100.00%
    478   480       33.0000   663      192.0000        0.0000  1125531  100.00%
*   479+  479                          111.0000        0.0000           100.00%
*   479+  479                          109.0000        0.0000           100.00%
*   479+  479                          108.0000        0.0000           100.00%
*   479+  479                          107.0000        0.0000           100.00%

Zero-half cuts applied:  16

Root node processing (before b&c):
  Real time             =   69.25 sec. (73519.46 ticks)
Sequential b&c:
  Real time             =  530.76 sec. (528660.95 ticks)
                          ------------
Total (root+branch&cut) =  600.01 sec. (602180.41 ticks)
Primal number of violations:	107
Dual number of violations:	0
Status:	Feasible
Time:	599.98
Sequence:
	16
	7
	10
	0
	18
	4
	10
	7
	0
	15
	3
	5
	10
	8
	10
	4
	8
	10
	0
	7
	15
	0
	17
	5
	10
	7
	5
	11
	5
	2
	15
	13
	4
	5
	10
	8
	10
	12
	5
	15
	0
	15
	4
	13
	10
	0
	15
	14
	5
	10
	2
	10
	10
	18
	4
	10
	8
	10
	5
	7
	10
	5
	12
	5
	15
	10
	7
	10
	5
	15
	3
	15
	5
	13
	15
	5
	14
	5
	15
	2
	15
	16
	7
	0
	15
	3
	5
	10
	8
	15
	10
	8
	15
	0
	3
	15
	5
	2
	15
	4
	10
	8
	10
	5
	7
	10
	0
	17
	0
	10
	8
	15
	1
	15
	7
	0
	15
	9
	10
	5
	7
	11
	13
	10
	5
	10
	6
	10
	7
	0
	15
	5
	13
	4
	13
	7
	15
	0
	17
	5
	10
	7
	10
	6
	8
	10
	7
	10
	5
	0
	4
	15
	7
	0
	5
	10
	5
	14
	0
	15
	2
	15
	5
	10
	4
	18
	4
	18
	7
	15
	0
	4
	17
	0
	12
	10
	8
	15
	0
	12
	15
	7
	10
	6
	15
	10
	5
	12
	5
	15
	2
	6
	15
	0
	10
	2
	6
	10
	7
	10
	5
	3
	15
	5
	2
	15
	6
	2
	15
	5
	10
	7
	15
	0
	18
	4
	0
	7
	15
	0
	15
	5
	2
	15
	5
	12
	15
	15
	0
	18
	4
	10
	15
	18
	0
	15
	1
	15
	15
	0
	15
	5
	2
	15
	5
	2
	10
	1
	15
	0
	15
	2
	17
	5
	10
	0
	7
	6
	10
	13
	4
	10
	8
	10
	8
	15
	1
	7
	15
	0
	15
	6
	10
	18
	15
	0
	18
	4
	10
	10
	5
	7
	15
	11
	5
	0
	7
	15
	15
	9
	0
	15
	2
	15
	1
	7
	15
	0
	15
	13
